coords = array2d(1..72, 1..2, [771, 807, 366, 891, 384, 463, 638, 909, 325,
    394, 784, 719, 191, 14, 375, 529, 65, 278, 29, 421, 884, 349, 894,
    644, 915, 948, 444, 4, 514, 183, 186, 362, 154, 492, 496, 412,
    258, 866, 195, 607, 432, 949, 366, 653, 888, 361, 292, 694, 456,
    695, 246, 746, 716, 356, 717, 570, 246, 688, 840, 113, 252, 537,
    495, 648, 860, 469, 305, 36, 632, 178, 435, 534, 65, 284, 338,
    256, 827, 692, 914, 346, 138, 713, 815, 92, 464, 198, 652, 292,
    59, 744, 223, 455, 338, 506, 194, 279, 721, 919, 297, 846, 980,
    645, 876, 853, 609, 404, 976, 222, 22, 720, 771, 257, 219, 868,
    56, 681, 646, 381, 945, 952, 581, 707, 328, 308, 131, 747, 280,
    615, 53, 574, 918, 130, 426, 680, 41, 990, 20, 36, 948, 692, 880,
    221, 536, 314]);

n = 72;

